CMD:
./solvers/bin/cadical --plain --no-reduce -t 1600 ./data/cnfs//visarbiter/visarbiter.20.cnf

c --- [ banner ] -------------------------------------------------------------
c 
c CaDiCaL SAT Solver
c Copyright (c) 2016-2024
c A. Biere, M. Fleury, N. Froleyks, K. Fazekas, F. Pollitt, T. Faller
c JKU Linz, University of Freiburg, TU Wien
c 
c Version 2.1.3 5296d3d2a9bf48c154ab2acb5e44625776d821bf
c g++ (Gentoo 12.3.1_p20230526 p2) 12.3.1 20230526 -Wall -Wextra -O3 -DNDEBUG
c Sat Aug 9 07:26:21 PDT 2025 Linux cedar2.int.cedar.computecanada.ca 5.14.0-362.24.2.el9_3.x86_64 x86_64
c 
c --- [ limit ] --------------------------------------------------------------
c 
c setting time limit to 1600 seconds real time (due to '-t 1600')
c 
c --- [ parsing input ] ------------------------------------------------------
c 
c reading DIMACS file from './data/cnfs//visarbiter/visarbiter.20.cnf'
c opening file to read './data/cnfs//visarbiter/visarbiter.20.cnf'
c found 'p cnf 9326 27680' header
c parsed 27680 clauses in 0.00 seconds process time
c 
c --- [ options ] ------------------------------------------------------------
c 
c   --compact=false                (different from default 'true')
c   --decompose=false              (different from default 'true')
c   --deduplicate=false            (different from default 'true')
c   --elim=false                   (different from default 'true')
c   --probe=false                  (different from default 'true')
c   --reduce=false                 (different from default 'true')
c   --subsume=false                (different from default 'true')
c   --ternary=false                (different from default 'true')
c   --transred=false               (different from default 'true')
c   --vivify=false                 (different from default 'true')
c 
c --- [ solving ] ------------------------------------------------------------
c 
c time measured in process time since initialization
c 
c  seconds  reductions  redundant  irredundant
c         MB    restarts       trail     variables
c          level   conflicts       glue       remaining
c 
c *  0.00  8  0 0   0    0    0  0% 0 26225 8400 90%
c {  0.00  8  0 0   0    0    0  0% 0 26225 8400 90%
c i  0.01  8 49 0  26  522  461 45% 2 26225 8397 90%
c }  0.02  9 39 0  93 1000  912 40% 2 26225 8397 90%
c [  0.02  9  0 0  93 1000  912  0% 0 26225 8397 90%
c O  0.02  9 37 0  93 1005  916 34% 2 26225 8397 90%
c i  0.02  9 24 0  93 1132 1035 60% 5 26225 8396 90%
c i  0.05  9 14 0  93 1955 1704 48% 5 26225 8395 90%
c i  0.06  9 13 0  94 2140 1829 47% 5 26225 8102 87%
c i  0.06  9 13 0  94 2150 1838 47% 5 26225 8098 87%
c i  0.08  9 12 0  94 2606 2178 43% 5 26225 8091 87%
c i  0.08  9 12 0  94 2666 2223 43% 5 26225 7978 86%
c i  0.08  9 12 0  94 2671 2226 43% 5 26225 7833 84%
c i  0.08  9 12 0  94 2672 2226 43% 5 26225 7816 84%
c i  0.08  9 12 0  94 2675 2228 43% 5 26225 7570 81%
c i  0.08  9 12 0  94 2676 2228 43% 5 26225 6865 74%
c ]  0.08  9 12 0  94 2678 2228 43% 5 26225 6672 72%
c 0  0.08  9 12 0  94 2678 2228 43% 5 26225 6672 72%
c 
c --- [ result ] -------------------------------------------------------------
c 
s UNSATISFIABLE
c 
c --- [ run-time profiling ] -------------------------------------------------
c 
c process time taken by individual solving procedures
c (percentage relative to process time for solving)
c 
c         0.08   99.89% search
c         0.06   80.36% stable
c         0.01   18.87% unstable
c         0.00    5.35% parse
c         0.00    0.63% lucky
c         0.00    0.00% simplify
c   =================================
c         0.08   94.60% solve
c 
c last line shows process time for solving
c (percentage relative to total process time)
c 
c --- [ statistics ] ---------------------------------------------------------
c 
c chronological:              1009        37.68 %  of conflicts
c conflicts:                  2678     35383.96    per second
c decisions:                  6274     82897.31    per second
c fixed:                      2654        28.46 %  of all variables
c learned:                    2583        96.45 %  per conflict
c learned_lits:              36293       100.00 %  learned literals
c minimized:                     0         0.00 %  learned literals
c shrunken:                   9620        26.51 %  learned literals
c minishrunken:               4643        12.79 %  learned literals
c otfs:                         30         1.12 %  of conflict
c propagations:            1287982        17.02 M  per second
c rephased:                      1      2678.00    interval
c restarts:                     94        28.49    interval
c stabilizing:                   1        62.62 %  of conflicts
c subsumed:                    344         1.19 %  of all clauses
c strengthened:                 29         0.10 %  of all clauses
c 
c seconds are measured in process time for solving
c 
c --- [ resources ] ----------------------------------------------------------
c 
c total process time since initialization:         0.08    seconds
c total real time since initialization:            0.08    seconds
c maximum resident set size of process:           30.81    MB
c 
c --- [ shutting down ] ------------------------------------------------------
c 
c exit 20
